p idrup
i -9 4 0
i -11 6 0
i 13 -2 0
i 5 5 12 0
i 15 8 0
i -13 3 0
i 9 -5 0
i -6 2 0
i -4 -10 0
i -7 15 0
i -12 7 0
i 14 -3 0
i 11 10 0
i -1 0
i -4 -14 -8 0
q 0
l 15 0
s SATISFIABLE
m -1 2 3 4 5 6 -7 -8 9 -10 11 -12 13 14 15 0
